147727.23,59.04,73.22
168557.88,51.75,64.17
193149.0,45.16,56.0
163034.16,53.5,66.35
163863.75,53.23,66.01
154662.05,56.4,69.94
155444.74,56.11,69.59
182861.09,47.7,59.15
190856.38,45.7,56.68
187302.21,46.57,57.75
172306.29,50.62,62.78
152023.17,57.38,71.15
172132.12,50.67,62.84
163828.87,53.24,66.02
184480.96,47.28,58.63
170457.83,51.17,63.46
157638.97,55.33,68.62
157831.9,55.26,68.53
156314.83,55.8,69.2
154609.8,56.42,69.96
